Route #1: 12 53 38 36 51 9 8 25 28
Route #2: 56 26 17 34 19 41 18
Route #3: 5 13 33 46 23
Route #4: 16 48 49 44 21 10 3 24 27
Route #5: 45 6 31 11 15 1
Route #6: 2 30 22 42 14 39 50 52
Route #7: 55 37 7 43 20 47 32
Route #8: 4 29 40 35 54
Cost 1140
Time 0.094572
